p cnf 100 472
-1 -8 0
-1 -15 0
-1 -19 0
-1 -25 0
-1 -54 0
-1 -58 0
-1 -59 0
-1 -74 0
-1 -78 0
-1 -83 0
-1 -89 0
-2 -5 0
-2 -6 0
-2 -11 0
-2 -13 0
-2 -18 0
-2 -19 0
-2 -21 0
-2 -27 0
-2 -32 0
-2 -36 0
-2 -49 0
-2 -54 0
-2 -82 0
-2 -90 0
-2 -97 0
-3 -21 0
-3 -26 0
-3 -36 0
-3 -49 0
-3 -64 0
-3 -66 0
-3 -70 0
-3 -71 0
-3 -79 0
-3 -90 0
-4 -13 0
-4 -15 0
-4 -21 0
-4 -38 0
-4 -39 0
-4 -51 0
-4 -52 0
-4 -96 0
-4 -97 0
-5 -11 0
-5 -18 0
-5 -20 0
-5 -22 0
-5 -27 0
-5 -29 0
-5 -33 0
-5 -42 0
-5 -43 0
-5 -47 0
-5 -57 0
-5 -80 0
-5 -91 0
-6 -33 0
-6 -38 0
-6 -67 0
-6 -80 0
-6 -81 0
-6 -86 0
-7 -10 0
-7 -11 0
-7 -17 0
-7 -22 0
-7 -42 0
-7 -50 0
-7 -67 0
-7 -70 0
-7 -73 0
-7 -74 0
-7 -99 0
-7 -100 0
-8 -10 0
-8 -15 0
-8 -16 0
-8 -28 0
-8 -43 0
-8 -47 0
-8 -80 0
-8 -98 0
-9 -26 0
-9 -28 0
-9 -74 0
-9 -81 0
-9 -93 0
-9 -97 0
-9 -99 0
-10 -26 0
-10 -32 0
-10 -34 0
-10 -53 0
-10 -61 0
-10 -84 0
-10 -93 0
-10 -94 0
-10 -98 0
-11 -23 0
-11 -41 0
-11 -42 0
-11 -55 0
-11 -62 0
-11 -66 0
-11 -71 0
-11 -86 0
-11 -88 0
-11 -96 0
-11 -98 0
-12 -18 0
-12 -39 0
-12 -63 0
-12 -75 0
-12 -83 0
-12 -85 0
-12 -87 0
-12 -94 0
-13 -18 0
-13 -38 0
-13 -43 0
-13 -46 0
-13 -57 0
-13 -62 0
-13 -68 0
-13 -85 0
-13 -98 0
-14 -29 0
-14 -31 0
-14 -40 0
-14 -49 0
-14 -59 0
-14 -67 0
-14 -97 0
-14 -99 0
-15 -26 0
-15 -27 0
-15 -36 0
-15 -37 0
-15 -57 0
-15 -69 0
-15 -70 0
-16 -32 0
-16 -34 0
-16 -35 0
-16 -47 0
-16 -53 0
-16 -61 0
-17 -23 0
-17 -46 0
-17 -54 0
-17 -81 0
-17 -90 0
-17 -92 0
-18 -19 0
-18 -24 0
-18 -29 0
-18 -44 0
-18 -48 0
-18 -61 0
-18 -69 0
-18 -77 0
-19 -26 0
-19 -38 0
-19 -48 0
-19 -79 0
-19 -91 0
-19 -99 0
-20 -31 0
-20 -33 0
-20 -39 0
-20 -40 0
-20 -43 0
-20 -60 0
-20 -70 0
-20 -79 0
-20 -87 0
-20 -93 0
-21 -25 0
-21 -27 0
-21 -35 0
-21 -60 0
-21 -68 0
-21 -77 0
-21 -82 0
-21 -94 0
-22 -23 0
-22 -26 0
-22 -34 0
-22 -49 0
-22 -62 0
-22 -76 0
-22 -81 0
-23 -26 0
-23 -33 0
-23 -38 0
-23 -42 0
-23 -46 0
-23 -53 0
-23 -55 0
-23 -59 0
-23 -64 0
-23 -65 0
-23 -75 0
-23 -80 0
-23 -84 0
-24 -36 0
-24 -40 0
-24 -50 0
-24 -92 0
-24 -95 0
-25 -31 0
-25 -39 0
-25 -52 0
-25 -56 0
-25 -71 0
-25 -91 0
-26 -32 0
-26 -34 0
-26 -35 0
-26 -40 0
-26 -43 0
-26 -59 0
-26 -63 0
-26 -65 0
-26 -82 0
-27 -28 0
-27 -33 0
-27 -35 0
-27 -39 0
-27 -40 0
-27 -42 0
-27 -56 0
-27 -60 0
-27 -79 0
-27 -84 0
-27 -97 0
-28 -66 0
-28 -73 0
-28 -78 0
-28 -82 0
-29 -52 0
-29 -54 0
-29 -58 0
-29 -67 0
-29 -70 0
-29 -82 0
-29 -85 0
-29 -89 0
-30 -39 0
-30 -87 0
-30 -91 0
-30 -93 0
-31 -36 0
-31 -42 0
-31 -45 0
-31 -54 0
-32 -38 0
-32 -42 0
-32 -52 0
-32 -93 0
-33 -40 0
-33 -46 0
-33 -48 0
-33 -55 0
-33 -86 0
-34 -47 0
-34 -54 0
-34 -63 0
-34 -84 0
-34 -98 0
-35 -40 0
-35 -57 0
-35 -61 0
-35 -62 0
-35 -70 0
-35 -75 0
-35 -77 0
-35 -84 0
-36 -41 0
-36 -44 0
-36 -50 0
-36 -56 0
-36 -59 0
-36 -86 0
-36 -98 0
-37 -44 0
-37 -46 0
-37 -53 0
-37 -83 0
-37 -88 0
-37 -98 0
-38 -44 0
-38 -65 0
-38 -74 0
-38 -78 0
-38 -100 0
-39 -41 0
-39 -79 0
-39 -83 0
-40 -42 0
-40 -48 0
-40 -70 0
-40 -81 0
-40 -92 0
-41 -47 0
-41 -56 0
-41 -87 0
-41 -98 0
-41 -100 0
-42 -45 0
-42 -57 0
-42 -65 0
-42 -67 0
-42 -96 0
-43 -57 0
-43 -62 0
-43 -87 0
-43 -97 0
-44 -75 0
-44 -84 0
-44 -92 0
-45 -49 0
-45 -54 0
-45 -72 0
-45 -79 0
-45 -80 0
-45 -100 0
-46 -51 0
-46 -85 0
-46 -87 0
-46 -91 0
-46 -95 0
-47 -53 0
-47 -62 0
-47 -65 0
-47 -68 0
-47 -74 0
-47 -75 0
-47 -97 0
-47 -99 0
-48 -54 0
-48 -64 0
-48 -70 0
-48 -81 0
-48 -88 0
-49 -56 0
-49 -72 0
-49 -74 0
-49 -93 0
-49 -95 0
-50 -53 0
-50 -56 0
-50 -64 0
-50 -72 0
-50 -86 0
-51 -64 0
-51 -68 0
-51 -75 0
-51 -86 0
-51 -88 0
-51 -89 0
-51 -92 0
-52 -54 0
-52 -78 0
-52 -81 0
-52 -97 0
-53 -54 0
-53 -55 0
-53 -57 0
-53 -62 0
-53 -63 0
-53 -65 0
-53 -78 0
-53 -86 0
-53 -90 0
-54 -56 0
-54 -57 0
-54 -62 0
-54 -76 0
-54 -82 0
-54 -99 0
-55 -59 0
-55 -61 0
-55 -63 0
-55 -77 0
-55 -91 0
-56 -58 0
-56 -62 0
-57 -64 0
-57 -67 0
-57 -74 0
-57 -86 0
-57 -89 0
-58 -74 0
-58 -78 0
-58 -89 0
-58 -98 0
-59 -67 0
-59 -85 0
-59 -93 0
-60 -67 0
-60 -72 0
-60 -97 0
-61 -71 0
-61 -84 0
-61 -88 0
-61 -96 0
-62 -71 0
-62 -73 0
-62 -84 0
-62 -92 0
-62 -94 0
-62 -99 0
-63 -85 0
-63 -91 0
-63 -94 0
-63 -97 0
-63 -98 0
-64 -82 0
-65 -81 0
-65 -83 0
-65 -88 0
-66 -92 0
-66 -94 0
-67 -95 0
-68 -72 0
-68 -82 0
-69 -74 0
-69 -82 0
-69 -88 0
-69 -99 0
-70 -83 0
-70 -97 0
-72 -73 0
-72 -90 0
-72 -100 0
-73 -75 0
-73 -85 0
-73 -87 0
-74 -75 0
-74 -86 0
-74 -94 0
-75 -78 0
-75 -82 0
-75 -97 0
-75 -99 0
-76 -94 0
-76 -95 0
-76 -100 0
-77 -86 0
-78 -79 0
-78 -97 0
-79 -93 0
-80 -85 0
-80 -89 0
-80 -95 0
-82 -97 0
-83 -87 0
-84 -85 0
-84 -87 0
-84 -92 0
-86 -94 0
-86 -98 0
-87 -97 0
-87 -98 0
-88 -94 0
-88 -96 0
-90 -99 0
-91 -92 0
-94 -98 0
